#######################
Slurm job id: 17497813_341
Running on machine: p45
Running cmd: /nfs/shared/static-builds/gurobi1202 SOFTMEMLIMIT=125 MIPFocus=3 Presolve=2 TimeLimit=300 seed=0 /nfs/models/miplib2010/k16x240.mps.bz2
#######################
Set parameter TimeLimit to value 300
Set parameter SoftMemLimit to value 125
Set parameter MIPFocus to value 3
Set parameter LogFile to value 1202-MIPFocus3-Presolve2-TimeLimit300-k16x240-0.log
Set parameter Presolve to value 2
Using license file /opt/gurobi/gurobi.lic

Gurobi Optimizer version 12.0.2 build v12.0.2rc0 (linux64 - "Ubuntu 22.04.4 LTS")
Copyright (c) 2025, Gurobi Optimization, LLC

Read MPS format model from file /nfs/models/miplib2010/k16x240.mps.bz2
Reading time = 0.00 seconds
k16x240: 256 rows, 480 columns, 960 nonzeros

Using Gurobi shared library /nfs/shared/static-builds/gurobi1202

CPU model: Intel(R) Xeon(R) E-2388G CPU @ 3.20GHz, instruction set [SSE2|AVX|AVX2|AVX512]
Thread count: 8 physical cores, 16 logical processors, using up to 16 threads

Non-default parameters:
TimeLimit  300
SoftMemLimit  125
MIPFocus  3
Presolve  2

Optimize a model with 256 rows, 480 columns and 960 nonzeros
Model fingerprint: 0x4e80885f
Variable types: 240 continuous, 240 integer (240 binary)
Coefficient statistics:
  Matrix range     [1e+00, 1e+03]
  Objective range  [1e+00, 1e+03]
  Bounds range     [1e+00, 1e+03]
  RHS range        [4e+00, 4e+02]
Found heuristic solution: objective 23615.000000
Presolve time: 0.00s
Presolved: 256 rows, 480 columns, 960 nonzeros
Variable types: 240 continuous, 240 integer (240 binary)
Root relaxation presolve removed 241 rows and 240 columns
Root relaxation presolved: 15 rows, 240 columns, 450 nonzeros


Root relaxation: objective 2.769838e+03, 16 iterations, 0.00 seconds (0.00 work units)

    Nodes    |    Current Node    |     Objective Bounds      |     Work
 Expl Unexpl |  Obj  Depth IntInf | Incumbent    BestBd   Gap | It/Node Time

     0     0 2769.83800    0   14 23615.0000 2769.83800  88.3%     -    0s
H    0     0                    11359.000000 2769.83800  75.6%     -    0s
H    0     0                    11342.000000 2769.83800  75.6%     -    0s
H    0     0                    11262.000000 2769.83800  75.4%     -    0s
H    0     0                    11239.000000 2769.83800  75.4%     -    0s
H    0     0                    11195.000000 8116.87580  27.5%     -    0s
H    0     0                    11174.000000 8116.87580  27.4%     -    0s
H    0     0                    11120.000000 8116.87580  27.0%     -    0s
H    0     0                    11118.000000 8116.87580  27.0%     -    0s
H    0     0                    11094.000000 8116.87580  26.8%     -    0s
H    0     0                    11079.000000 8116.87580  26.7%     -    0s
     0     0 8116.87580    0   26 11079.0000 8116.87580  26.7%     -    0s
H    0     0                    11077.000000 8182.85928  26.1%     -    0s
H    0     0                    11036.000000 8182.85928  25.9%     -    0s
     0     0 8748.17806    0   23 11036.0000 8748.17806  20.7%     -    0s
     0     0 8751.29955    0   20 11036.0000 8751.29955  20.7%     -    0s
     0     0 8791.28017    0   21 11036.0000 8791.28017  20.3%     -    0s
     0     0 8810.95744    0   18 11036.0000 8810.95744  20.2%     -    0s
     0     0 9046.36529    0   29 11036.0000 9046.36529  18.0%     -    0s
H    0     0                    10954.000000 9046.36529  17.4%     -    0s
H    0     0                    10869.000000 9046.36529  16.8%     -    0s
H    0     0                    10832.000000 9046.36529  16.5%     -    0s
H    0     0                    10807.000000 9046.36529  16.3%     -    0s
H    0     0                    10681.000000 9046.36529  15.3%     -    0s
     0     0 9054.93600    0   38 10681.0000 9054.93600  15.2%     -    0s
     0     0 9111.09043    0   42 10681.0000 9111.09043  14.7%     -    0s
     0     0 9111.09043    0   42 10681.0000 9111.09043  14.7%     -    0s
     0     2 9111.09043    0   42 10681.0000 9111.09043  14.7%     -    0s
H  623   629                    10674.000000 9576.43939  10.3%  43.5    0s
  3842  3002 10464.2174   31   23 10674.0000 10209.3917  4.35%  88.3    5s
 15112  8621 10492.4857   24   30 10674.0000 10434.7043  2.24%  64.7   10s
 35843  8748     cutoff   28      10674.0000 10582.1627  0.86%  47.0   15s

Cutting planes:
  Lift-and-project: 6
  Cover: 2
  Implied bound: 9
  Dual implied bound: 2
  MIR: 119
  Mixing: 1
  Flow cover: 559
  Flow path: 37
  Zero half: 26
  Network: 22
  Relax-and-lift: 4

Explored 50159 nodes (1901405 simplex iterations) in 16.57 seconds (24.44 work units)
Thread count was 16 (of 16 available processors)

Solution count 10: 10674 10681 10807 ... 11094

Optimal solution found (tolerance 1.00e-04)
Best objective 1.067400000000e+04, best bound 1.067300000000e+04, gap 0.0094%
